
(set-logic ALL) 

(declare-datatype MyList ((Nil) (Cons (head Real) (tail MyList)) )) 
(declare-fun l0 () MyList) 
(declare-fun l1 () MyList) 
(declare-fun l2 () MyList) 
(declare-fun l3 () MyList) 
(declare-fun i0 () Real) 
(declare-fun i1 () Real) 
(assert (= l2 Nil) )
(assert (is-Nil l1) )
(assert (or (is-Nil l0) (= l0 Nil)) )
(assert (and (= l3 Nil) (is-Nil Nil)) )
(assert (not (= l2 l0)) )
(assert (is-Nil Nil) )
(assert (or (is-Cons l3) (= l0 l1) (is-Cons Nil) (= l2 Nil)) )
(assert (or (= l0 l0) (is-Cons Nil) (is-Cons Nil)) )
(check-sat)
